[2026-03-23T22:12:34.785Z] Pipeline "set_ds_1_ds_1_s011_g005" → 2026_03_23_22_12_34_set_ds_1_ds_1_s011_g005_max.sol
Set parameter WLSAccessID
Set parameter WLSSecret
Set parameter LicenseID to value 2792458
Set parameter LogFile to value "gurobi.log"
Using license file /root/gurobi.lic
Academic license 2792458 - for non-commercial use only - registered to an___@studenti.unipg.it

Gurobi Optimizer version 13.0.1 build v13.0.1rc0 (linux64 - "Ubuntu 24.04.4 LTS")
Copyright (c) 2026, Gurobi Optimization, LLC

Warning: Duplicate section found (read 'binary') - Is a variable name equal to an LP file format keyword?
Warning: Duplicate section found (read 'binary') - Is a variable name equal to an LP file format keyword?
Warning: Duplicate section found (read 'binary') - Is a variable name equal to an LP file format keyword?
Warning: Duplicate section found (read 'binary') - Is a variable name equal to an LP file format keyword?
Warning: Duplicate section found (read 'binary') - Is a variable name equal to an LP file format keyword?
Warning: Duplicate section found (read 'binary') - Is a variable name equal to an LP file format keyword?
Warning: Duplicate section found (read 'binary') - Is a variable name equal to an LP file format keyword?
Warning: Duplicate section found (read 'binary') - Is a variable name equal to an LP file format keyword?
Warning: Duplicate section found (read 'binary') - Is a variable name equal to an LP file format keyword?
Warning: Duplicate section found (read 'binary') - Is a variable name equal to an LP file format keyword?
Warning: Further warnings of this type will be omitted.
Read LP format model from file /root/bgw/data/uploads/2026_03_23_22_12_34_set_ds_1_ds_1_s011_g005_max.lp
Reading time = 0.01 seconds
: 3188 rows, 323 columns, 9531 nonzeros

Using Gurobi shared library /opt/gurobi1301/linux64/lib/libgurobi.so.13.0.1

CPU model: AMD EPYC-Genoa Processor, instruction set [SSE2|AVX|AVX2|AVX512]
Thread count: 16 physical cores, 16 logical processors, using up to 16 threads

Academic license 2792458 - for non-commercial use only - registered to an___@studenti.unipg.it
Optimize a model with 3188 rows, 323 columns and 9531 nonzeros (Max)
Model fingerprint: 0xca7b3451
Model has 31 linear objective coefficients
Variable types: 52 continuous, 271 integer (271 binary)
Coefficient statistics:
  Matrix range     [1e+00, 2e+01]
  Objective range  [1e+00, 1e+00]
  Bounds range     [1e+00, 1e+00]
  RHS range        [1e+00, 2e+01]

Found heuristic solution: objective 31.0000000
Presolve removed 480 rows and 85 columns
Presolve time: 0.02s
Presolved: 2708 rows, 238 columns, 8268 nonzeros
Variable types: 0 continuous, 238 integer (230 binary)
Found heuristic solution: objective 36.0000000

Root relaxation: objective 1.580000e+02, 227 iterations, 0.01 seconds (0.01 work units)

    Nodes    |    Current Node    |     Objective Bounds      |     Work
 Expl Unexpl |  Obj  Depth IntInf | Incumbent    BestBd   Gap | It/Node Time

     0     0  158.00000    0   27   36.00000  158.00000   339%     -    0s
H    0     0                      40.0000000  158.00000   295%     -    0s
H    0     0                      56.0000000  158.00000   182%     -    0s
H    0     0                      65.0000000  158.00000   143%     -    0s
H    0     0                      69.0000000  158.00000   129%     -    0s
H    0     0                      71.0000000  158.00000   123%     -    0s
H    0     0                      72.0000000  158.00000   119%     -    0s
     0     0  158.00000    0   54   72.00000  158.00000   119%     -    0s
H    0     0                      74.0000000  158.00000   114%     -    0s
     0     0  158.00000    0   49   74.00000  158.00000   114%     -    0s
     0     0  158.00000    0   38   74.00000  158.00000   114%     -    0s
     0     0  158.00000    0   27   74.00000  158.00000   114%     -    0s
H    0     0                      75.0000000  158.00000   111%     -    0s
H    0     0                      76.0000000  158.00000   108%     -    0s
     0     0  158.00000    0   35   76.00000  158.00000   108%     -    0s
     0     0  158.00000    0   35   76.00000  158.00000   108%     -    0s
     0     0  158.00000    0   35   76.00000  158.00000   108%     -    0s
     0     0  158.00000    0   35   76.00000  158.00000   108%     -    0s
H    0     0                      78.0000000  158.00000   103%     -    0s
     0     0  158.00000    0   31   78.00000  158.00000   103%     -    0s
     0     0  158.00000    0   27   78.00000  158.00000   103%     -    0s
     0     0  155.42105    0   35   78.00000  155.42105  99.3%     -    0s
     0     0  155.00000    0   33   78.00000  155.00000  98.7%     -    0s
     0     0  155.00000    0   27   78.00000  155.00000  98.7%     -    0s
     0     0  155.00000    0   27   78.00000  155.00000  98.7%     -    0s
     0     0  155.00000    0   27   78.00000  155.00000  98.7%     -    0s
     0     2  155.00000    0   27   78.00000  155.00000  98.7%     -    0s
H   13    20                      79.0000000  151.00000  91.1%  34.9    0s
H  697   349                      80.0000000  148.21053  85.3%  39.1    0s
H  911   430                      81.0000000  146.00000  80.2%  40.8    0s
  9428  1484  105.52632   27   53   81.00000  111.63158  37.8%  69.2    5s

Cutting planes:
  Inf proof: 12

Explored 28473 nodes (1634528 simplex iterations) in 8.79 seconds (14.96 work units)
Thread count was 16 (of 16 available processors)

Solution count 10: 81 81 81 ... 74

Optimal solution found (tolerance 1.00e-04)
Best objective 8.100000000000e+01, best bound 8.100000000000e+01, gap 0.0000%

Wrote result file '/root/bgw/data/results/2026_03_23_22_12_34_set_ds_1_ds_1_s011_g005_max.sol'

